Results/Experiment 2 Results/New Benchmark/output_p1_0.25_p2_0.00_n_40_16.lp
clingo version 5.4.0
Reading from tempSRTISolver.lp ...
Solving...
Answer: 1
matched(1,4) matched(8,5) matched(6,7) matched(5,8) matched(11,10) matched(10,11) matched(12,9) matched(19,18) matched(13,20) matched(20,13) matched(22,24) matched(27,26) matched(26,27) matched(21,28) matched(28,21) matched(31,30) matched(30,31) matched(35,34) matched(37,36) matched(36,37) matched(39,38) matched(38,39) matched(2,3) matched(7,6) matched(9,12) matched(16,14) matched(17,15) matched(18,19) matched(29,32) matched(34,35) matched(3,2) matched(24,22) matched(25,23) matched(23,25) matched(32,29) matched(33,40) matched(40,33) matched(4,1) matched(14,16) matched(15,17)
Optimization: 387
Answer: 2
matched(5,4) matched(4,5) matched(6,7) matched(1,8) matched(11,10) matched(10,11) matched(12,9) matched(19,18) matched(13,20) matched(20,13) matched(22,24) matched(27,26) matched(26,27) matched(21,28) matched(28,21) matched(31,30) matched(30,31) matched(35,34) matched(37,36) matched(36,37) matched(39,38) matched(38,39) matched(2,3) matched(7,6) matched(9,12) matched(16,14) matched(17,15) matched(18,19) matched(29,32) matched(34,35) matched(3,2) matched(24,22) matched(25,23) matched(23,25) matched(32,29) matched(33,40) matched(40,33) matched(8,1) matched(14,16) matched(15,17)
Optimization: 385
Answer: 3
matched(5,4) matched(4,5) matched(3,7) matched(1,8) matched(11,10) matched(10,11) matched(12,9) matched(19,18) matched(13,20) matched(20,13) matched(25,24) matched(22,26) matched(23,27) matched(21,28) matched(28,21) matched(31,30) matched(30,31) matched(35,34) matched(38,36) matched(40,37) matched(36,38) matched(33,39) matched(7,3) matched(2,6) matched(9,12) matched(16,14) matched(17,15) matched(18,19) matched(29,32) matched(34,35) matched(6,2) matched(26,22) matched(27,23) matched(24,25) matched(32,29) matched(37,40) matched(39,33) matched(8,1) matched(14,16) matched(15,17)
Optimization: 380
Answer: 4
matched(2,4) matched(3,5) matched(6,7) matched(1,8) matched(11,10) matched(10,11) matched(12,9) matched(19,18) matched(13,20) matched(20,13) matched(22,24) matched(27,26) matched(26,27) matched(21,28) matched(28,21) matched(31,30) matched(30,31) matched(35,34) matched(38,36) matched(40,37) matched(36,38) matched(33,39) matched(5,3) matched(7,6) matched(9,12) matched(16,14) matched(17,15) matched(18,19) matched(29,32) matched(34,35) matched(4,2) matched(24,22) matched(25,23) matched(23,25) matched(32,29) matched(37,40) matched(39,33) matched(8,1) matched(14,16) matched(15,17)
Optimization: 376
Answer: 5
matched(1,4) matched(8,5) matched(3,7) matched(5,8) matched(12,10) matched(9,11) matched(11,9) matched(19,18) matched(13,20) matched(20,13) matched(26,24) matched(24,26) matched(21,27) matched(25,28) matched(27,21) matched(31,30) matched(30,31) matched(35,34) matched(38,36) matched(40,37) matched(36,38) matched(33,39) matched(7,3) matched(2,6) matched(10,12) matched(16,14) matched(17,15) matched(18,19) matched(29,32) matched(34,35) matched(6,2) matched(23,22) matched(22,23) matched(28,25) matched(32,29) matched(37,40) matched(39,33) matched(4,1) matched(14,16) matched(15,17)
Optimization: 374
Answer: 6
matched(1,4) matched(8,5) matched(6,7) matched(5,8) matched(12,10) matched(9,11) matched(11,9) matched(19,18) matched(13,20) matched(20,13) matched(22,24) matched(27,26) matched(26,27) matched(21,28) matched(28,21) matched(31,30) matched(30,31) matched(35,34) matched(38,36) matched(40,37) matched(36,38) matched(33,39) matched(2,3) matched(7,6) matched(10,12) matched(16,14) matched(17,15) matched(18,19) matched(29,32) matched(34,35) matched(3,2) matched(24,22) matched(25,23) matched(23,25) matched(32,29) matched(37,40) matched(39,33) matched(4,1) matched(14,16) matched(15,17)
Optimization: 373
Answer: 7
matched(5,4) matched(4,5) matched(6,7) matched(1,8) matched(12,10) matched(9,11) matched(11,9) matched(19,18) matched(13,20) matched(20,13) matched(22,24) matched(27,26) matched(26,27) matched(21,28) matched(28,21) matched(31,30) matched(30,31) matched(35,34) matched(38,36) matched(40,37) matched(36,38) matched(33,39) matched(2,3) matched(7,6) matched(10,12) matched(16,14) matched(17,15) matched(18,19) matched(29,32) matched(34,35) matched(3,2) matched(24,22) matched(25,23) matched(23,25) matched(32,29) matched(37,40) matched(39,33) matched(8,1) matched(14,16) matched(15,17)
Optimization: 371
Answer: 8
matched(5,4) matched(4,5) matched(6,7) matched(1,8) matched(12,10) matched(9,11) matched(11,9) matched(14,18) matched(13,20) matched(20,13) matched(25,24) matched(27,26) matched(26,27) matched(21,28) matched(28,21) matched(31,30) matched(30,31) matched(35,34) matched(38,36) matched(40,37) matched(36,38) matched(33,39) matched(2,3) matched(7,6) matched(10,12) matched(18,14) matched(19,15) matched(15,19) matched(29,32) matched(34,35) matched(3,2) matched(23,22) matched(22,23) matched(24,25) matched(32,29) matched(37,40) matched(39,33) matched(8,1) matched(17,16) matched(16,17)
Optimization: 370
Answer: 9
matched(2,4) matched(3,5) matched(6,7) matched(1,8) matched(12,10) matched(9,11) matched(11,9) matched(19,18) matched(13,20) matched(20,13) matched(25,24) matched(27,26) matched(26,27) matched(21,28) matched(28,21) matched(31,30) matched(30,31) matched(35,34) matched(38,36) matched(40,37) matched(36,38) matched(33,39) matched(5,3) matched(7,6) matched(10,12) matched(16,14) matched(17,15) matched(18,19) matched(29,32) matched(34,35) matched(4,2) matched(23,22) matched(22,23) matched(24,25) matched(32,29) matched(37,40) matched(39,33) matched(8,1) matched(14,16) matched(15,17)
Optimization: 368
Answer: 10
matched(5,4) matched(4,5) matched(6,7) matched(1,8) matched(12,10) matched(9,11) matched(11,9) matched(19,18) matched(13,20) matched(20,13) matched(25,24) matched(27,26) matched(26,27) matched(21,28) matched(28,21) matched(31,30) matched(30,31) matched(35,34) matched(38,36) matched(40,37) matched(36,38) matched(33,39) matched(2,3) matched(7,6) matched(10,12) matched(16,14) matched(17,15) matched(18,19) matched(29,32) matched(34,35) matched(3,2) matched(23,22) matched(22,23) matched(24,25) matched(32,29) matched(37,40) matched(39,33) matched(8,1) matched(14,16) matched(15,17)
Optimization: 367
OPTIMUM FOUND

Models       : 10
  Optimum    : yes
Optimization : 367
Calls        : 1
Time         : 0.335s (Solving: 0.11s 1st Model: 0.00s Unsat: 0.01s)
CPU Time     : 0.332s
